10
0, 282, 188, 597, 480, 224, 305, 448, 459, 308
282, 0, 210, 613, 203, 159, 356, 279, 393, 78
188, 210, 0, 448, 358, 61, 161, 265, 276, 277
597, 613, 448, 0, 641, 467, 294, 404, 237, 691
480, 203, 358, 641, 0, 297, 457, 237, 403, 225
224, 159, 61, 467, 297, 0, 197, 223, 270, 232
305, 356, 161, 294, 457, 197, 0, 278, 187, 430
448, 279, 265, 404, 237, 223, 278, 0, 168, 351
459, 393, 276, 237, 403, 270, 187, 168, 0, 471
308, 78, 277, 691, 225, 232, 430, 351, 471, 0
